NAME: tsp_154
COMMENT: Random TSP instance
TYPE: TSP
DIMENSION: 50
EDGE_WEIGHT_TYPE: EUC_2D
NODE_COORD_SECTION
1 316 669
2 546 521
3 702 496
4 758 698
5 391 318
6 777 573
7 400 248
8 879 296
9 346 250
10 175 919
11 548 949
12 586 778
13 178 729
14 375 400
15 97 195
16 786 176
17 573 589
18 726 768
19 774 310
20 710 673
21 774 262
22 112 228
23 431 389
24 840 339
25 80 906
26 879 344
27 266 961
28 894 185
29 896 417
30 283 696
31 101 701
32 160 568
33 173 452
34 651 503
35 526 172
36 413 382
37 277 951
38 808 170
39 142 3
40 30 675
41 407 701
42 89 579
43 129 690
44 394 405
45 207 966
46 466 431
47 443 523
48 240 766
49 355 485
50 614 855
